TCS_Benchmarks/redos_fix/snort3_output_distinct_4088_4087_2_0.smt2
(set-logic QF_S)
(declare-const x String)
(assert (str.in.re x (re.inter (re.*  (re.union  (str.to_re "\u{0A}") (re.union  (str.to_re "\u{0D}") (re.union (re.union (re.range "\u{09}" "\u{0d}") (re.range "\u{20}" "\u{20}") (re.range "\u{85}" "\u{85}") (re.range "\u{a0}" "\u{a0}"))  (str.to_re "\u{09}")))) )  (re.++ (re.*  (re.union  (str.to_re "\u{0A}") (re.union  (str.to_re "\u{0D}") (re.union (re.union (re.range "\u{09}" "\u{0d}") (re.range "\u{20}" "\u{20}") (re.range "\u{85}" "\u{85}") (re.range "\u{a0}" "\u{a0}"))  (str.to_re "\u{09}")))) )  (re.++ (re.comp  (str.to.re "\u{3c}")) (re.++ (re.comp  (str.to.re "\u{3c}")) (re.++ (re.comp  (str.to.re "\u{3c}")) (re.++ (re.comp  (str.to.re "\u{3c}")) (re.++ (re.comp  (str.to.re "\u{3c}")) (re.++ (re.comp  (str.to.re "\u{3c}")) (re.++ (re.comp  (str.to.re "\u{3c}")) (re.++ (re.comp  (str.to.re "\u{3c}")) (re.++ (re.comp  (str.to.re "\u{3c}")) (re.++ (re.comp  (str.to.re "\u{3c}")) (re.++ (re.comp  (str.to.re "\u{3c}")) (re.++ (re.comp  (str.to.re "\u{3c}")) (re.++ (re.comp  (str.to.re "\u{3c}")) (re.++ (re.comp  (str.to.re "\u{3c}")) (re.++ (re.comp  (str.to.re "\u{3c}")) (re.++ (re.comp  (str.to.re "\u{3c}")) (re.++ (re.comp  (str.to.re "\u{3c}")) (re.++ (re.comp  (str.to.re "\u{3c}")) (re.++ (re.comp  (str.to.re "\u{3c}")) (re.++ (re.comp  (str.to.re "\u{3c}")) (re.++ (re.comp  (str.to.re "\u{3c}")) (re.++ (re.comp  (str.to.re "\u{3c}")) (re.++ (re.comp  (str.to.re "\u{3c}")) (re.++ (re.comp  (str.to.re "\u{3c}")) (re.++ (re.comp  (str.to.re "\u{3c}")) (re.++ (re.comp  (str.to.re "\u{3c}")) (re.++ (re.comp  (str.to.re "\u{3c}")) (re.++ (re.comp  (str.to.re "\u{3c}")) (re.++ (re.comp  (str.to.re "\u{3c}")) (re.++ (re.comp  (str.to.re "\u{3c}")) (re.comp  (str.to.re "\u{3c}")))))))))))))))))))))))))))))))))  (re.++ (re.comp  (str.to.re "\u{3c}")) (re.++ (re.comp  (str.to.re "\u{3c}")) (re.++ (re.comp  (str.to.re "\u{3c}")) (re.++ (re.comp  (str.to.re "\u{3c}")) (re.++ (re.comp  (str.to.re "\u{3c}")) (re.++ (re.comp  (str.to.re "\u{3c}")) (re.++ (re.comp  (str.to.re "\u{3c}")) (re.++ (re.comp  (str.to.re "\u{3c}")) (re.++ (re.comp  (str.to.re "\u{3c}")) (re.++ (re.comp  (str.to.re "\u{3c}")) (re.++ (re.comp  (str.to.re "\u{3c}")) (re.++ (re.comp  (str.to.re "\u{3c}")) (re.++ (re.comp  (str.to.re "\u{3c}")) (re.++ (re.comp  (str.to.re "\u{3c}")) (re.++ (re.comp  (str.to.re "\u{3c}")) (re.++ (re.comp  (str.to.re "\u{3c}")) (re.++ (re.comp  (str.to.re "\u{3c}")) (re.++ (re.comp  (str.to.re "\u{3c}")) (re.++ (re.comp  (str.to.re "\u{3c}")) (re.++ (re.comp  (str.to.re "\u{3c}")) (re.++ (re.comp  (str.to.re "\u{3c}")) (re.++ (re.comp  (str.to.re "\u{3c}")) (re.++ (re.comp  (str.to.re "\u{3c}")) (re.++ (re.comp  (str.to.re "\u{3c}")) (re.++ (re.comp  (str.to.re "\u{3c}")) (re.++ (re.comp  (str.to.re "\u{3c}")) (re.++ (re.comp  (str.to.re "\u{3c}")) (re.++ (re.comp  (str.to.re "\u{3c}")) (re.++ (re.comp  (str.to.re "\u{3c}")) (re.++ (re.comp  (str.to.re "\u{3c}")) (re.comp  (str.to.re "\u{3c}")))))))))))))))))))))))))))))))) )))
(check-sat)
(get-model)