TCS_Benchmarks/redos_fix/snort3_output_distinct_4088_4087_2_0.txt
[\n\r\s\t]*
([\n\r\s\t]*)([^<]{31})
[^<]{31}